

******************************************************************************
This program contains Ipopt, a library for large-scale nonlinear optimization.
 Ipopt is released as open source code under the Eclipse Public License (EPL).
         For more information visit http://projects.coin-or.org/Ipopt
******************************************************************************

This is Ipopt version 3.12.8, running with linear solver mumps.
NOTE: Other linear solvers might be more efficient (see Ipopt documentation).

Number of nonzeros in equality constraint Jacobian...:        0
Number of nonzeros in inequality constraint Jacobian.:        2
Number of nonzeros in Lagrangian Hessian.............:        3

Total number of variables............................:        2
                     variables with only lower bounds:        0
                variables with lower and upper bounds:        0
                     variables with only upper bounds:        0
Total number of equality constraints.................:        0
Total number of inequality constraints...............:        1
        inequality constraints with only lower bounds:        0
   inequality constraints with lower and upper bounds:        0
        inequality constraints with only upper bounds:        1

iter    objective    inf_pr   inf_du lg(mu)  ||d||  lg(rg) alpha_du alpha_pr  ls
   0  5.0000000e-01 1.42e-01 1.32e+00  -1.0 0.00e+00    -  0.00e+00 0.00e+00   0
   1  6.8283621e-02 1.22e-01 2.96e-01  -1.0 6.36e-01    -  1.00e+00 1.00e+00f  1
   2  6.2814747e-02 1.21e-01 1.24e+00  -1.7 2.13e-01    -  1.00e+00 4.38e-01h  1
   3  1.5484073e+00 1.95e-02 3.09e+00  -1.7 9.59e-01    -  1.00e+00 1.00e+00h  1
   4  6.5933506e-01 1.21e-02 1.58e+01  -1.7 1.78e+00    -  1.00e+00 2.23e-01F  1
   5  8.7448747e-01 3.94e-03 1.35e+00  -1.7 1.19e-01    -  1.00e+00 1.00e+00h  1
   6  9.3613427e-01 2.57e-03 8.45e+00  -1.7 6.57e-02    -  1.00e+00 7.46e-01h  1
   7  1.0748495e+00 1.11e-03 2.48e+00  -1.7 6.97e-02    -  1.00e+00 1.00e+00h  1
   8  1.1112267e+00 7.22e-04 8.60e+00  -1.7 3.47e-02    -  1.00e+00 8.80e-01h  1
   9  1.2253663e+00 2.67e-04 3.41e+00  -1.7 5.03e-02    -  1.00e+00 1.00e+00h  1
iter    objective    inf_pr   inf_du lg(mu)  ||d||  lg(rg) alpha_du alpha_pr  ls
  10  1.2728280e+00 1.36e-04 6.12e+00  -1.7 2.15e-02    -  1.00e+00 9.67e-01h  1
  11  1.3421994e+00 2.67e-05 3.45e+00  -1.7 2.84e-02    -  1.00e+00 1.00e+00f  1
  12  1.3647704e+00 0.00e+00 1.54e+00  -1.7 7.77e-03    -  1.00e+00 1.00e+00h  1
  13  1.3643081e+00 0.00e+00 6.18e-02  -2.5 7.87e-04    -  1.00e+00 1.00e+00h  1
  14  1.3628122e+00 0.00e+00 4.11e-04  -3.8 5.66e-04    -  1.00e+00 1.00e+00f  1
  15  1.3626482e+00 0.00e+00 3.48e-06  -5.7 6.09e-05    -  1.00e+00 1.00e+00f  1
  16  1.3626462e+00 0.00e+00 6.13e-10  -8.6 7.23e-07    -  1.00e+00 1.00e+00h  1

Number of Iterations....: 16

                                   (scaled)                 (unscaled)
Objective...............:   1.3626462201731298e+00    1.3626462201731298e+00
Dual infeasibility......:   6.1295812869843758e-10    6.1295812869843758e-10
Constraint violation....:   0.0000000000000000e+00    0.0000000000000000e+00
Complementarity.........:   2.5347891903107482e-09    2.5347891903107482e-09
Overall NLP error.......:   2.3920310177061310e-10    2.5347891903107482e-09


Number of objective function evaluations             = 18
Number of objective gradient evaluations             = 17
Number of equality constraint evaluations            = 0
Number of inequality constraint evaluations          = 18
Number of equality constraint Jacobian evaluations   = 0
Number of inequality constraint Jacobian evaluations = 17
Number of Lagrangian Hessian evaluations             = 16
Total CPU secs in IPOPT (w/o function evaluations)   =      0.005
Total CPU secs in NLP function evaluations           =      0.002

EXIT: Optimal Solution Found.
 
Ipopt 3.12.8: Optimal Solution Found
